p cnf 45 55
-44 -27 -42 0
-15 4 0
17 22 0
-44 -12 0
16 34 -28 7 0
-5 -12 21 0
-40 0
-18 0
16 -20 -42 22 0
-22 45 15 -16 24 0
8 -24 -45 -44 25 0
8 -39 5 -35 0
-25 0
-44 0
44 0
41 -14 27 0
4 -26 31 0
9 -37 -15 0
28 0
32 -42 -26 0
20 13 -25 0
8 10 27 0
1 29 -26 0
34 -22 -18 16 23 0
16 10 0
10 19 0
44 0
-29 0
29 -10 0
26 -36 42 31 0
-2 15 0
-29 -28 -43 38 0
45 0
-16 41 16 0
40 -45 -33 0
-4 0
38 -36 21 14 0
-19 -13 -8 25 24 0
-16 -23 2 31 0
34 -21 -33 0
3 6 42 11 -35 0
28 18 -9 26 -36 0
-23 0
-6 -42 -10 31 0
43 2 -37 38 0
9 0
5 30 -1 0
35 10 -11 -10 -4 0
-8 0
-7 0
30 0
-21 20 30 0
-10 0
17 11 20 44 0
-14 0
